unsat
(:added-eqs                   2668513
 :arith-eq-adapter            3272
 :arith-bound-propagations-lp 4905
 :arith-conflicts             187
 :arith-diseq                 162596
 :arith-fixed-eqs             194468
 :arith-lower                 173564
 :arith-make-feasible         52080
 :arith-max-columns           1404
 :arith-max-rows              803
 :arith-offset-eqs            55651
 :arith-upper                 177390
 :binary-propagations         12342265
 :conflicts                   25466
 :decisions                   1376719
 :del-clause                  17930
 :elim-unconstrained          2
 :max-memory                  57.68
 :memory                      35.33
 :minimized-lits              256779
 :mk-bool-var                 24052
 :mk-clause                   37268
 :mk-clause-binary            65479
 :num-allocs                  379450795
 :num-checks                  1
 :propagations                17145111
 :restarts                    147
 :rlimit-count                45135162
 :time                        18.27
 :total-time                  18.48)
